NAME : tsp_364_sol.txt
COMMENT : OR-Tools Guided Local Search
TYPE : TOUR
DIMENSION : 50
COST : 5685
STATUS : ROUTING_SUCCESS
GAP : 0.00% (Reference Solution)
TOUR_SECTION
1
32
15
5
24
42
6
17
21
8
40
25
2
46
13
44
10
37
22
18
39
41
20
26
9
36
4
31
11
50
28
16
47
48
12
38
45
29
35
14
43
49
33
19
3
27
7
23
30
34
-1
